WARNING: for repeatability, setting FPU to use double precision
============================[ Problem Statistics ]=============================
|                                                                             |
|  Number of variables:           100                                         |
|  Number of clauses:             449                                         |
|  Parse time:                   0.00 s                                       |
|  Simplification time:          0.00 s                                       |
|                                                                             |
============================[ Search Statistics ]==============================
| Conflicts |          ORIGINAL         |          LEARNT          | Progress |
|           |    Vars  Clauses Literals |    Limit  Clauses Lit/Cl |          |
===============================================================================
|       100 |     100      448     1343 |      164      100      6 |  0.010 % |
===============================================================================
restarts              : 2
conflicts             : 168            (59723 /sec)
decisions             : 208            (0.00 % random) (73942 /sec)
propagations          : 4317           (1534661 /sec)
conflict literals     : 1126           (17.51 % deleted)
Memory used           : 13.00 MB
CPU time              : 0.002813 s

SATISFIABLE
